# Solution for model GasLib-40
# Objective value = 5.9348562206515524e+01
loadshed[innode_1] 0
loadshed[innode_2] 0
loadshed[innode_3] 0
loadshed[innode_4] 0
loadshed[innode_5] 0
loadshed[innode_6] 0
loadshed[innode_7] 0
loadshed[innode_8] 0
loadshed[source_1] -7.5291048152239082e-02
loadshed[source_2] 8.2450578432940791e-02
loadshed[source_3] 3.6824978040400358e-01
loadshed[sink_1] 6.8851492105867140e-01
loadshed[sink_2] 0
loadshed[sink_3] 0
loadshed[sink_4] 0
loadshed[sink_5] 0
loadshed[sink_6] 0
loadshed[sink_7] 0
loadshed[sink_8] 0
loadshed[sink_9] 0
loadshed[sink_10] 0
loadshed[sink_11] 0
loadshed[sink_12] 1
loadshed[sink_13] 0
loadshed[sink_14] 0
loadshed[sink_15] 0
loadshed[sink_16] 0
loadshed[sink_17] 0
loadshed[sink_18] 0
loadshed[sink_19] 0
loadshed[sink_20] 0
loadshed[sink_21] 1
loadshed[sink_22] 0
loadshed[sink_23] 0
loadshed[sink_24] 9.4044174889387011e-01
loadshed[sink_25] 0
loadshed[sink_26] 0
loadshed[sink_27] 0
loadshed[sink_28] 0
loadshed[sink_29] 0
flow[source_1,sink_3] 1.6999306049434529e+02
flow[innode_1,sink_16] 1.6354166666666970e+01
flow[innode_6,sink_13] 1.4605598964563372e+01
flow[sink_13,sink_14] -1.7485677021032959e+00
flow[sink_14,sink_10] -1.8102734368769916e+01
flow[sink_25,sink_26] 0
flow[sink_26,sink_9] 6.2961642419946386e+01
flow[sink_9,sink_18] 4.6607475753279715e+01
flow[sink_26,sink_4] -7.9315809086613044e+01
flow[sink_4,sink_20] -1.6960977112681945e+02
flow[sink_18,sink_6] 3.0253309086613051e+01
flow[sink_25,innode_8] -1.3728472716100893e+02
flow[sink_6,sink_7] -7.5491031419065848e+00
flow[sink_6,sink_22] 2.1448245561852982e+01
flow[sink_7,sink_24] 9.7402556496483483e-01
flow[sink_22,sink_1] 5.0940788951863132e+00
flow[sink_24,sink_21] 0
flow[sink_21,sink_12] 0
flow[sink_7,sink_5] -2.4877295373538114e+01
flow[sink_5,sink_17] -4.1231462040204775e+01
flow[sink_17,sink_4] -7.3939795373539766e+01
flow[sink_17,sink_8] 1.6354166666668334e+01
flow[sink_3,sink_23] 16.3541666666697
flow[sink_8,sink_20] 0
flow[sink_25,sink_20] 1.8596393779348620e+02
flow[sink_25,sink_15] -79.6389762637078
flow[sink_15,sink_29] -5.4571213302786731e+01
flow[sink_29,sink_28] 1.6354166666667879e+01
flow[sink_29,sink_2] 5.7776096294254415e+01
flow[sink_2,sink_15] 4.1421929627587744e+01
flow[sink_29,innode_7] -1.4505564293037571e+02
flow[innode_4,sink_19] 3.7913169149806066e+01
flow[sink_19,innode_3] 0
flow[innode_4,innode_5] 6.1960398552297121e+01
flow[sink_27,innode_5] -6.1960398552297121e+01
flow[sink_27,sink_19] 4.5606231885630457e+01
flow[sink_10,sink_11] 3.2708333333333641e+01
flow[sink_10,innode_2] -6.7165234368770570e+01
flow[sink_10,innode_3] 0
flow[innode_6,sink_25] -1.4605598964563372e+01
flow[sink_11,innode_1] 1.6354166666666970e+01
flow[sink_19,innode_2] 6.7165234368770570e+01
flow[source_3,innode_4] 9.9873567702103188e+01
flow[source_2,innode_7] 1.4505564293037571e+02
flow[sink_3,innode_8] 1.3728472716100893e+02
pressure[innode_1] 7.5775629568939507e+01
pressure[innode_2] 7.9477290914435770e+01
pressure[innode_3] 7.9477290914435770e+01
pressure[innode_4] 81.01325
pressure[innode_5] 80.9706303706938
pressure[innode_6] 7.5148485975203641e+01
pressure[innode_7] 81.01325
pressure[innode_8] 8.0445028138470320e+01
pressure[source_1] 81.01325
pressure[source_2] 81.01325
pressure[source_3] 81.01325
pressure[sink_1] 1.0132500000000002e+00
pressure[sink_2] 75.6700460830278
pressure[sink_3] 8.0445028138470320e+01
pressure[sink_4] 1.8371890363906505e+01
pressure[sink_5] 1.2474709301241031e+01
pressure[sink_6] 2.0248055043237541e+00
pressure[sink_7] 2.1284366961237078e+00
pressure[sink_8] 1.4929069998254965e+01
pressure[sink_9] 4.5190563197969222e+00
pressure[sink_10] 7.5927330876543053e+01
pressure[sink_11] 7.5775629568939507e+01
pressure[sink_12] 1.01325
pressure[sink_13] 7.5067967748934336e+01
pressure[sink_14] 7.5071096959782281e+01
pressure[sink_15] 7.5534812612039971e+01
pressure[sink_16] 7.4753979734121828e+01
pressure[sink_17] 1.5546155193668591e+01
pressure[sink_18] 2.8326589328749563e+00
pressure[sink_19] 7.9477290914435770e+01
pressure[sink_20] 3.0815251816163723e+01
pressure[sink_21] 1.01325
pressure[sink_22] 1.3445982152817939e+00
pressure[sink_23] 8.0280310126810534e+01
pressure[sink_24] 1.01325
pressure[sink_25] 7.5148485975203641e+01
pressure[sink_26] 8.2874731181566190e+00
pressure[sink_27] 8.0456473553215773e+01
pressure[sink_28] 7.6838297532823589e+01
pressure[sink_29] 7.7133579806440764e+01
interdiction[source_1,sink_3] 0
interdiction[innode_1,sink_16] 0
interdiction[innode_6,sink_13] 0
interdiction[sink_13,sink_14] 0
interdiction[sink_14,sink_10] 0
interdiction[sink_25,sink_26] 1
interdiction[sink_26,sink_9] 0
interdiction[sink_9,sink_18] 0
interdiction[sink_26,sink_4] 0
interdiction[sink_4,sink_20] 0
interdiction[sink_18,sink_6] 0
interdiction[sink_25,innode_8] 0
interdiction[sink_6,sink_7] 0
interdiction[sink_6,sink_22] 0
interdiction[sink_7,sink_24] 0
interdiction[sink_22,sink_1] 0
interdiction[sink_24,sink_21] 0
interdiction[sink_21,sink_12] 0
interdiction[sink_7,sink_5] 0
interdiction[sink_5,sink_17] 0
interdiction[sink_17,sink_4] 0
interdiction[sink_17,sink_8] 0
interdiction[sink_3,sink_23] 0
interdiction[sink_8,sink_20] 1
interdiction[sink_25,sink_20] 0
interdiction[sink_25,sink_15] 0
interdiction[sink_15,sink_29] 0
interdiction[sink_29,sink_28] 0
interdiction[sink_29,sink_2] 0
interdiction[sink_2,sink_15] 0
interdiction[sink_29,innode_7] 0
interdiction[innode_4,sink_19] 0
interdiction[sink_19,innode_3] 0
interdiction[innode_4,innode_5] 0
interdiction[sink_27,innode_5] 0
interdiction[sink_27,sink_19] 0
interdiction[sink_10,sink_11] 0
interdiction[sink_10,innode_2] 0
interdiction[sink_10,innode_3] 1
interdiction[innode_6,sink_25] 0
interdiction[sink_11,innode_1] 0
interdiction[sink_19,innode_2] 0
interdiction[source_3,innode_4] 0
interdiction[source_2,innode_7] 0
interdiction[sink_3,innode_8] 0
WCcheckFlow[source_1,sink_3] 39
WCcheckFlow[innode_1,sink_16] 1
WCcheckFlow[innode_6,sink_13] 13
WCcheckFlow[sink_13,sink_14] 12
WCcheckFlow[sink_14,sink_10] 11
WCcheckFlow[sink_25,sink_26] 0
WCcheckFlow[sink_26,sink_9] 12
WCcheckFlow[sink_9,sink_18] 11
WCcheckFlow[sink_26,sink_4] -13
WCcheckFlow[sink_4,sink_20] -14
WCcheckFlow[sink_18,sink_6] 10
WCcheckFlow[sink_25,innode_8] -36
WCcheckFlow[sink_6,sink_7] 7
WCcheckFlow[sink_6,sink_22] 2
WCcheckFlow[sink_7,sink_24] 3
WCcheckFlow[sink_22,sink_1] 1
WCcheckFlow[sink_24,sink_21] 2
WCcheckFlow[sink_21,sink_12] 1
WCcheckFlow[sink_7,sink_5] 3
WCcheckFlow[sink_5,sink_17] 2
WCcheckFlow[sink_17,sink_4] 0
WCcheckFlow[sink_17,sink_8] 1
WCcheckFlow[sink_3,sink_23] 1
WCcheckFlow[sink_8,sink_20] 0
WCcheckFlow[sink_25,sink_20] 15
WCcheckFlow[sink_25,sink_15] 6
WCcheckFlow[sink_15,sink_29] 5
WCcheckFlow[sink_29,sink_28] 1
WCcheckFlow[sink_29,sink_2] 1
WCcheckFlow[sink_2,sink_15] 0
WCcheckFlow[sink_29,innode_7] 2
WCcheckFlow[innode_4,sink_19] -4
WCcheckFlow[sink_19,innode_3] 1
WCcheckFlow[innode_4,innode_5] 2
WCcheckFlow[sink_27,innode_5] -1
WCcheckFlow[sink_27,sink_19] 0
WCcheckFlow[sink_10,sink_11] 3
WCcheckFlow[sink_10,innode_2] 7
WCcheckFlow[sink_10,innode_3] 0
WCcheckFlow[innode_6,sink_25] -14
WCcheckFlow[sink_11,innode_1] 2
WCcheckFlow[sink_19,innode_2] -6
WCcheckFlow[source_3,innode_4] -1
WCcheckFlow[source_2,innode_7] -1
WCcheckFlow[sink_3,innode_8] 37
